500
400
280
280
280
279
279
279
278
278
278
278
277
277
277
277
277
276
275
275
275
273
273
273
272
272
271
271
271
270
270
270
270
269
268
267
267
267
267
266
266
266
265
265
264
263
263
263
263
263
262
262
262
262
262
261
261
261
261
260
260
259
258
258
257
256
256
254
253
253
253
253
253
253
250
250
250
249
248
248
248
246
246
246
246
245
245
245
245
244
244
241
241
241
241
240
239
239
239
238
238
237
237
237
236
236
236
236
236
235
235
235
234
232
232
231
231
231
229
229
229
228
227
227
227
226
225
224
224
223
223
222
222
222
221
220
220
220
219
219
218
218
217
217
217
217
216
216
215
215
215
215
215
215
214
213
213
213
213
212
208
207
206
206
205
205
205
204
204
203
202
201
201
201
200
200
200
200
199
199
198
198
198
197
197
196
196
196
196
195
195
194
193
191
191
191
191
190
189
189
188
188
188
187
186
185
184
184
184
184
183
183
182
181
181
181
181
181
180
180
180
179
179
178
178
178
178
178
177
176
176
176
175
174
173
173
172
171
170
170
170
170
169
168
168
168
168
167
167
166
166
165
165
165
165
165
164
164
164
163
162
162
161
161
161
160
160
160
159
159
159
155
155
155
154
154
152
151
151
150
149
148
148
148
148
148
147
147
147
147
146
145
145
144
144
144
143
143
143
142
142
141
140
140
139
139
139
139
138
138
136
136
135
134
134
133
133
132
132
132
131
131
131
130
129
129
128
127
126
126
126
125
124
124
123
122
121
121
121
121
120
120
120
120
119
118
117
116
116
116
116
116
114
114
113
113
112
112
112
112
112
111
111
111
110
110
110
110
109
109
107
105
105
103
103
103
102
101
100
99
99
99
98
96
95
95
95
94
93
93
91
91
91
90
90
90
90
89
89
89
89
88
88
87
87
87
87
87
86
86
85
85
85
84
84
83
83
83
83
82
82
82
82
81
80
80
79
79
78
76
75
75
74
74
74
72
72
72
71
71
71
70
69
68
68
65
65
64
64
64
62
62
62
62
62
61
61
61
61
60
60
60
59
58
58
57
56
56
56
55
55
52
52
52
52
52
51
51
50
50
50
50
49
49
49
49
48
47
47
47
47
45
44
44
43
43
43
42
42
42
41
41
